44186
96,98,121,140,171,176,213,236,403,612,652,685,720,917,930,954,1003,1031,1034,1072,1143,1160,1239,1322,1361,1421,1457,1481,1647,1759,2045,2143,2367,2469,2582,2617,2744,2860,2881,2896,2962,2977,2985,3032,3216,3261,3276,3281,3398,3465,3490,3529,3562,3568,3729,3795,3833,3856,3879,4026,4131,4143,4152,4183,4226,4284,4297,4343,4379,4383,4391,4406,4512,4648,4691,4729,4734,4849,4918
